100
1000
375
373
369
367
366
363
362
360
360
359
356
346
345
342
339
334
334
333
332
331
328
328
327
326
322
320
311
305
291
291
289
288
277
275
270
262
250
231
228
228
225
218
217
216
213
210
207
205
204
201
201
200
193
187
173
171
170
166
165
162
161
160
155
155
154
152
150
148
145
143
135
134
134
132
130
124
123
123
108
105
104
99
97
93
91
86
85
79
75
61
57
56
51
49
41
40
40
30
30
22
